KPOINTS created by Atomic Simulation Environment
0
Gamma
23 23 23 
0 0 0
