Mo 
 1.0000000000000000
    -1.5750000000000000    1.5750000000000000    1.5750000000000000
     1.5750000000000000   -1.5750000000000000    1.5750000000000000
     1.5750000000000000    1.5750000000000000   -1.5750000000000000
 Mo 
   1
Cartesian
  0.0000000000000000  0.0000000000000000  0.0000000000000000
